p cnf 19 25
11 -18 -16 17 -10 0
2 9 11 -18 -1 0
5 21 7 -8 9 0
1 3 11 12 13 -21 15 -16 17 -14 -4 -2 0
1 3 -21 13 -18 15 17 -12 -10 -6 -4 -2 0
1 3 -21 13 -18 15 -16 17 -12 -10 -4 -2 0
1 4 -2 17 0
-16 -13 14 0
-5 6 0
4 -3 0
8 17 -7 0
1 7 9 11 13 -18 15 -16 -14 -12 -10 -8 -6 -3 -2 0
1 3 5 7 9 11 13 -18 15 -16 -12 -8 -6 -4 -2 0
1 3 5 7 9 11 13 -18 -16 -14 -12 -10 -8 -6 -4 0
1 3 5 9 11 13 -18 15 -16 17 -14 -12 -7 -6 -4 0
1 3 5 7 9 12 -18 -16 17 -14 -10 -8 -6 -4 -2 0
1 5 7 9 11 13 -18 15 -16 -14 -12 -10 -8 -6 -3 0
1 5 7 9 13 -18 15 -16 17 -14 -12 -10 -8 -6 -2 0
1 3 5 7 9 13 -18 15 -16 -14 -12 -10 -8 -6 -2 0
3 11 -21 13 -18 15 17 -14 -12 -10 -6 -1 0
1 3 11 -21 13 15 17 -14 -12 -10 -6 -2 0
1 5 9 11 13 -18 15 -17 -14 -12 -10 -6 -4 -2 0
1 3 9 11 13 -18 15 -16 -17 -14 -12 -10 -4 -2 0
1 3 -21 11 13 -18 15 -12 -10 -4 -2 0
2 5 7 9 11 13 15 -16 -14 -12 -10 -6 -4 -1 0
